NAME PortOpt_n20_m8_inst_0
ROWS
 N  OBJ
 E  budget  
 L  return  
 L  uncertain_risk
 L  fixed_risk
COLUMNS
    asset[0]  budget    1
    asset[0]  return    -4.0407935778331501e+00
    asset[1]  budget    1
    asset[1]  return    -2.9262758466763601e+00
    asset[2]  budget    1
    asset[2]  return    -2.6140983267196507e+00
    asset[3]  budget    1
    asset[3]  return    -2.7182842097924302e+00
    asset[4]  budget    1
    asset[4]  return    -1.7338557542649016e+00
    asset[5]  budget    1
    asset[5]  return    -4.9170161343184873e+00
    asset[6]  budget    1
    asset[6]  return    -3.4335839025521633e+00
    asset[7]  budget    1
    asset[7]  return    -4.7048790828019467e+00
    asset[8]  budget    1
    asset[8]  return    -4.1748543174541988e+00
    asset[9]  budget    1
    asset[9]  return    -2.6486783590230965e+00
    asset[10]  budget    1
    asset[10]  return    -2.5671201176603438e+00
    asset[11]  budget    1
    asset[11]  return    -1.0646300495092589e+00
    asset[12]  budget    1
    asset[12]  return    -1.7974636515889768e+00
    asset[13]  budget    1
    asset[13]  return    -4.1346269380846268e+00
    asset[14]  budget    1
    asset[14]  return    -2.9718651835764440e+00
    asset[15]  budget    1
    asset[15]  return    -2.2213148705009678e+00
    asset[16]  budget    1
    asset[16]  return    -1.5230470116295003e+00
    asset[17]  budget    1
    asset[17]  return    -4.2562640430121297e+00
    asset[18]  budget    1
    asset[18]  return    -1.9784720503438515e+00
    asset[19]  budget    1
    asset[19]  return    -4.1691671961702665e+00
    return_var  OBJ       -1
    return_var  return    1
    uncertain_risk_var  OBJ       1
    uncertain_risk_var  uncertain_risk  -1
    fixed_risk_var  OBJ       1
    fixed_risk_var  fixed_risk  -1
RHS
    RHS1      budget    1
BOUNDS
 FR BND1      asset[0]
 FR BND1      asset[1]
 FR BND1      asset[2]
 FR BND1      asset[3]
 FR BND1      asset[4]
 FR BND1      asset[5]
 FR BND1      asset[6]
 FR BND1      asset[7]
 FR BND1      asset[8]
 FR BND1      asset[9]
 FR BND1      asset[10]
 FR BND1      asset[11]
 FR BND1      asset[12]
 FR BND1      asset[13]
 FR BND1      asset[14]
 FR BND1      asset[15]
 FR BND1      asset[16]
 FR BND1      asset[17]
 FR BND1      asset[18]
 FR BND1      asset[19]
 FR BND1      return_var
 FR BND1      uncertain_risk_var
 FR BND1      fixed_risk_var
QCMATRIX   uncertain_risk
    asset[0]  asset[0]  2.2739159881448374e-02
    asset[0]  asset[1]  3.0604776279518691e-03
    asset[1]  asset[0]  3.0604776279518691e-03
    asset[0]  asset[2]  1.0005464956592109e-03
    asset[2]  asset[0]  1.0005464956592109e-03
    asset[0]  asset[3]  -1.5050175173033919e-02
    asset[3]  asset[0]  -1.5050175173033919e-02
    asset[0]  asset[4]  -9.1175705231042511e-03
    asset[4]  asset[0]  -9.1175705231042511e-03
    asset[0]  asset[5]  -6.0992657810192408e-04
    asset[5]  asset[0]  -6.0992657810192408e-04
    asset[0]  asset[6]  5.6344221078882314e-03
    asset[6]  asset[0]  5.6344221078882314e-03
    asset[0]  asset[7]  2.7313727997672907e-03
    asset[7]  asset[0]  2.7313727997672907e-03
    asset[0]  asset[8]  2.2848391217761802e-03
    asset[8]  asset[0]  2.2848391217761802e-03
    asset[0]  asset[9]  -2.1783553887012932e-02
    asset[9]  asset[0]  -2.1783553887012932e-02
    asset[0]  asset[10]  -4.1299029658311628e-03
    asset[10]  asset[0]  -4.1299029658311628e-03
    asset[0]  asset[11]  1.1194786215254205e-02
    asset[11]  asset[0]  1.1194786215254205e-02
    asset[0]  asset[12]  4.1793494475685748e-03
    asset[12]  asset[0]  4.1793494475685748e-03
    asset[0]  asset[13]  -2.5744386961498604e-02
    asset[13]  asset[0]  -2.5744386961498604e-02
    asset[0]  asset[14]  8.8257918723962051e-03
    asset[14]  asset[0]  8.8257918723962051e-03
    asset[0]  asset[15]  1.4998087834989328e-02
    asset[15]  asset[0]  1.4998087834989328e-02
    asset[0]  asset[16]  2.3116015133781143e-03
    asset[16]  asset[0]  2.3116015133781143e-03
    asset[0]  asset[17]  -2.1349342119857055e-02
    asset[17]  asset[0]  -2.1349342119857055e-02
    asset[0]  asset[18]  8.9563229859735138e-03
    asset[18]  asset[0]  8.9563229859735138e-03
    asset[0]  asset[19]  1.5466822572558925e-02
    asset[19]  asset[0]  1.5466822572558925e-02
    asset[1]  asset[1]  1.6501649979714542e-02
    asset[1]  asset[2]  3.1057021590120406e-04
    asset[2]  asset[1]  3.1057021590120406e-04
    asset[1]  asset[3]  -7.3531441256390381e-03
    asset[3]  asset[1]  -7.3531441256390381e-03
    asset[1]  asset[4]  -9.9559953187291928e-03
    asset[4]  asset[1]  -9.9559953187291928e-03
    asset[1]  asset[5]  -1.1897536957678190e-03
    asset[5]  asset[1]  -1.1897536957678190e-03
    asset[1]  asset[6]  -4.4682062768813054e-04
    asset[6]  asset[1]  -4.4682062768813054e-04
    asset[1]  asset[7]  7.1861067907976750e-03
    asset[7]  asset[1]  7.1861067907976750e-03
    asset[1]  asset[8]  7.7937462062019278e-03
    asset[8]  asset[1]  7.7937462062019278e-03
    asset[1]  asset[9]  1.0597441338205307e-02
    asset[9]  asset[1]  1.0597441338205307e-02
    asset[1]  asset[10]  6.8292511579957534e-03
    asset[10]  asset[1]  6.8292511579957534e-03
    asset[1]  asset[11]  -4.9983919171534439e-03
    asset[11]  asset[1]  -4.9983919171534439e-03
    asset[1]  asset[12]  -2.2029205876713757e-03
    asset[12]  asset[1]  -2.2029205876713757e-03
    asset[1]  asset[13]  -9.0762021158696240e-04
    asset[13]  asset[1]  -9.0762021158696240e-04
    asset[1]  asset[14]  9.9432393638974048e-03
    asset[14]  asset[1]  9.9432393638974048e-03
    asset[1]  asset[15]  7.2281276450211224e-03
    asset[15]  asset[1]  7.2281276450211224e-03
    asset[1]  asset[16]  1.2460627971664757e-02
    asset[16]  asset[1]  1.2460627971664757e-02
    asset[1]  asset[17]  -1.1434964892451709e-02
    asset[17]  asset[1]  -1.1434964892451709e-02
    asset[1]  asset[18]  1.6740996000491056e-04
    asset[18]  asset[1]  1.6740996000491056e-04
    asset[1]  asset[19]  1.9935791096524899e-03
    asset[19]  asset[1]  1.9935791096524899e-03
    asset[2]  asset[2]  2.1294221565851722e-02
    asset[2]  asset[3]  6.1723260425107507e-03
    asset[3]  asset[2]  6.1723260425107507e-03
    asset[2]  asset[4]  -1.5275929767346954e-02
    asset[4]  asset[2]  -1.5275929767346954e-02
    asset[2]  asset[5]  -2.4341011236983937e-03
    asset[5]  asset[2]  -2.4341011236983937e-03
    asset[2]  asset[6]  -1.1656677262885141e-02
    asset[6]  asset[2]  -1.1656677262885141e-02
    asset[2]  asset[7]  3.7382343994849737e-03
    asset[7]  asset[2]  3.7382343994849737e-03
    asset[2]  asset[8]  -3.2211701972580109e-03
    asset[8]  asset[2]  -3.2211701972580109e-03
    asset[2]  asset[9]  2.3294463250399300e-02
    asset[9]  asset[2]  2.3294463250399300e-02
    asset[2]  asset[10]  -1.5127666257596435e-02
    asset[10]  asset[2]  -1.5127666257596435e-02
    asset[2]  asset[11]  4.2490129847499577e-03
    asset[11]  asset[2]  4.2490129847499577e-03
    asset[2]  asset[12]  2.8539633813537526e-03
    asset[12]  asset[2]  2.8539633813537526e-03
    asset[2]  asset[13]  4.7771153805259009e-03
    asset[13]  asset[2]  4.7771153805259009e-03
    asset[2]  asset[14]  7.9371148088467937e-03
    asset[14]  asset[2]  7.9371148088467937e-03
    asset[2]  asset[15]  -6.6951755002871531e-03
    asset[15]  asset[2]  -6.6951755002871531e-03
    asset[2]  asset[16]  4.4324778948868788e-03
    asset[16]  asset[2]  4.4324778948868788e-03
    asset[2]  asset[17]  -1.0196184079147056e-02
    asset[17]  asset[2]  -1.0196184079147056e-02
    asset[2]  asset[18]  -2.1468600966553453e-02
    asset[18]  asset[2]  -2.1468600966553453e-02
    asset[2]  asset[19]  1.5013278200124495e-02
    asset[19]  asset[2]  1.5013278200124495e-02
    asset[3]  asset[3]  1.8353783979984124e-02
    asset[3]  asset[4]  8.6463843592065014e-03
    asset[4]  asset[3]  8.6463843592065014e-03
    asset[3]  asset[5]  -2.4356917375791274e-03
    asset[5]  asset[3]  -2.4356917375791274e-03
    asset[3]  asset[6]  -1.1038259544893212e-02
    asset[6]  asset[3]  -1.1038259544893212e-02
    asset[3]  asset[7]  -1.6816652244048844e-03
    asset[7]  asset[3]  -1.6816652244048844e-03
    asset[3]  asset[8]  -5.4337668410123965e-03
    asset[8]  asset[3]  -5.4337668410123965e-03
    asset[3]  asset[9]  2.0249592101469184e-02
    asset[9]  asset[3]  2.0249592101469184e-02
    asset[3]  asset[10]  -6.3730794712442028e-03
    asset[10]  asset[3]  -6.3730794712442028e-03
    asset[3]  asset[11]  -6.6740984218013749e-03
    asset[11]  asset[3]  -6.6740984218013749e-03
    asset[3]  asset[12]  1.8006669302784600e-03
    asset[12]  asset[3]  1.8006669302784600e-03
    asset[3]  asset[13]  1.9355697223768453e-02
    asset[13]  asset[3]  1.9355697223768453e-02
    asset[3]  asset[14]  -6.6280014151865836e-03
    asset[14]  asset[3]  -6.6280014151865836e-03
    asset[3]  asset[15]  -1.6669846246736633e-02
    asset[15]  asset[3]  -1.6669846246736633e-02
    asset[3]  asset[16]  -2.6160546893123368e-03
    asset[16]  asset[3]  -2.6160546893123368e-03
    asset[3]  asset[17]  1.6447030310360614e-02
    asset[17]  asset[3]  1.6447030310360614e-02
    asset[3]  asset[18]  -1.4047438715053220e-02
    asset[18]  asset[3]  -1.4047438715053220e-02
    asset[3]  asset[19]  -3.0315490254754856e-03
    asset[19]  asset[3]  -3.0315490254754856e-03
    asset[4]  asset[4]  2.9486162235935243e-02
    asset[4]  asset[5]  -1.0857524265826785e-02
    asset[5]  asset[4]  -1.0857524265826785e-02
    asset[4]  asset[6]  1.1353452124831813e-03
    asset[6]  asset[4]  1.1353452124831813e-03
    asset[4]  asset[7]  -1.3111138293511302e-02
    asset[7]  asset[4]  -1.3111138293511302e-02
    asset[4]  asset[8]  -5.3754052776523679e-03
    asset[8]  asset[4]  -5.3754052776523679e-03
    asset[4]  asset[9]  -1.7460276541672926e-02
    asset[9]  asset[4]  -1.7460276541672926e-02
    asset[4]  asset[10]  8.7887784961389673e-03
    asset[10]  asset[4]  8.7887784961389673e-03
    asset[4]  asset[11]  -9.1750677779505255e-03
    asset[11]  asset[4]  -9.1750677779505255e-03
    asset[4]  asset[12]  -6.4229000692154915e-03
    asset[12]  asset[4]  -6.4229000692154915e-03
    asset[4]  asset[13]  -1.8333788808086470e-03
    asset[13]  asset[4]  -1.8333788808086470e-03
    asset[4]  asset[14]  -1.0987111418943173e-03
    asset[14]  asset[4]  -1.0987111418943173e-03
    asset[4]  asset[15]  -1.1255726630983520e-02
    asset[15]  asset[4]  -1.1255726630983520e-02
    asset[4]  asset[16]  -7.3912387734345122e-03
    asset[16]  asset[4]  -7.3912387734345122e-03
    asset[4]  asset[17]  2.4788391666592496e-02
    asset[17]  asset[4]  2.4788391666592496e-02
    asset[4]  asset[18]  1.5765660749558652e-02
    asset[18]  asset[4]  1.5765660749558652e-02
    asset[4]  asset[19]  -1.3603160256738526e-02
    asset[19]  asset[4]  -1.3603160256738526e-02
    asset[5]  asset[5]  2.3067286361397248e-02
    asset[5]  asset[6]  2.8114005219126797e-03
    asset[6]  asset[5]  2.8114005219126797e-03
    asset[5]  asset[7]  9.4040392618264627e-03
    asset[7]  asset[5]  9.4040392618264627e-03
    asset[5]  asset[8]  3.6930800233559804e-03
    asset[8]  asset[5]  3.6930800233559804e-03
    asset[5]  asset[9]  5.6089777425804782e-03
    asset[9]  asset[5]  5.6089777425804782e-03
    asset[5]  asset[10]  7.3413311724162731e-04
    asset[10]  asset[5]  7.3413311724162731e-04
    asset[5]  asset[11]  5.3941412716695756e-03
    asset[11]  asset[5]  5.3941412716695756e-03
    asset[5]  asset[12]  8.8114093975594603e-03
    asset[12]  asset[5]  8.8114093975594603e-03
    asset[5]  asset[13]  1.4936087388042231e-02
    asset[13]  asset[5]  1.4936087388042231e-02
    asset[5]  asset[14]  -2.3942838856564785e-02
    asset[14]  asset[5]  -2.3942838856564785e-02
    asset[5]  asset[15]  8.8252925223685358e-03
    asset[15]  asset[5]  8.8252925223685358e-03
    asset[5]  asset[16]  -2.0006549102304610e-03
    asset[16]  asset[5]  -2.0006549102304610e-03
    asset[5]  asset[17]  -7.1785101971269926e-03
    asset[17]  asset[5]  -7.1785101971269926e-03
    asset[5]  asset[18]  -3.1217421444006506e-03
    asset[18]  asset[5]  -3.1217421444006506e-03
    asset[5]  asset[19]  -6.9667245357273311e-03
    asset[19]  asset[5]  -6.9667245357273311e-03
    asset[6]  asset[6]  3.3876108433022363e-02
    asset[6]  asset[7]  -2.2408862005942184e-03
    asset[7]  asset[6]  -2.2408862005942184e-03
    asset[6]  asset[8]  5.1372733432165016e-03
    asset[8]  asset[6]  5.1372733432165016e-03
    asset[6]  asset[9]  -3.6074488367412720e-02
    asset[9]  asset[6]  -3.6074488367412720e-02
    asset[6]  asset[10]  -8.8787014722256034e-03
    asset[10]  asset[6]  -8.8787014722256034e-03
    asset[6]  asset[11]  9.9261254121375507e-03
    asset[11]  asset[6]  9.9261254121375507e-03
    asset[6]  asset[12]  2.5260989728489499e-03
    asset[12]  asset[6]  2.5260989728489499e-03
    asset[6]  asset[13]  -9.4347690645423324e-03
    asset[13]  asset[6]  -9.4347690645423324e-03
    asset[6]  asset[14]  -1.1409794814000129e-02
    asset[14]  asset[6]  -1.1409794814000129e-02
    asset[6]  asset[15]  2.2976369276624130e-02
    asset[15]  asset[6]  2.2976369276624130e-02
    asset[6]  asset[16]  -2.8056072449476104e-02
    asset[16]  asset[6]  -2.8056072449476104e-02
    asset[6]  asset[17]  5.9299441353584097e-03
    asset[17]  asset[6]  5.9299441353584097e-03
    asset[6]  asset[18]  9.0088788065208428e-03
    asset[18]  asset[6]  9.0088788065208428e-03
    asset[6]  asset[19]  3.5907112032708397e-03
    asset[19]  asset[6]  3.5907112032708397e-03
    asset[7]  asset[7]  1.5216860210264778e-02
    asset[7]  asset[8]  5.3634216914249088e-03
    asset[8]  asset[7]  5.3634216914249088e-03
    asset[7]  asset[9]  1.3775177107072161e-02
    asset[9]  asset[7]  1.3775177107072161e-02
    asset[7]  asset[10]  -1.3802423803468810e-03
    asset[10]  asset[7]  -1.3802423803468810e-03
    asset[7]  asset[11]  1.9783745889236956e-03
    asset[11]  asset[7]  1.9783745889236956e-03
    asset[7]  asset[12]  1.1165338558430968e-02
    asset[12]  asset[7]  1.1165338558430968e-02
    asset[7]  asset[13]  8.7719173899690750e-03
    asset[13]  asset[7]  8.7719173899690750e-03
    asset[7]  asset[14]  -7.4594050601562555e-03
    asset[14]  asset[7]  -7.4594050601562555e-03
    asset[7]  asset[15]  7.8659292363575210e-03
    asset[15]  asset[7]  7.8659292363575210e-03
    asset[7]  asset[16]  5.9710194780694427e-03
    asset[16]  asset[7]  5.9710194780694427e-03
    asset[7]  asset[17]  -7.6881568780537667e-03
    asset[17]  asset[7]  -7.6881568780537667e-03
    asset[7]  asset[18]  -9.0995268419861216e-03
    asset[18]  asset[7]  -9.0995268419861216e-03
    asset[7]  asset[19]  6.5768278037398285e-03
    asset[19]  asset[7]  6.5768278037398285e-03
    asset[8]  asset[8]  5.5759219923750478e-03
    asset[8]  asset[9]  5.1013002405002556e-04
    asset[9]  asset[8]  5.1013002405002556e-04
    asset[8]  asset[10]  2.4174558461858495e-03
    asset[10]  asset[8]  2.4174558461858495e-03
    asset[8]  asset[11]  -7.9190698746873785e-04
    asset[11]  asset[8]  -7.9190698746873785e-04
    asset[8]  asset[12]  1.6495278552798357e-03
    asset[12]  asset[8]  1.6495278552798357e-03
    asset[8]  asset[13]  -6.7106285157622766e-05
    asset[13]  asset[8]  -6.7106285157622766e-05
    asset[8]  asset[14]  -1.6673073246897762e-03
    asset[14]  asset[8]  -1.6673073246897762e-03
    asset[8]  asset[15]  8.0730306513100182e-03
    asset[15]  asset[8]  8.0730306513100182e-03
    asset[8]  asset[16]  2.4210019016633311e-03
    asset[16]  asset[8]  2.4210019016633311e-03
    asset[8]  asset[17]  -5.0161148861869054e-03
    asset[17]  asset[8]  -5.0161148861869054e-03
    asset[8]  asset[18]  8.5080281851370463e-04
    asset[18]  asset[8]  8.5080281851370463e-04
    asset[8]  asset[19]  3.7642553001329373e-04
    asset[19]  asset[8]  3.7642553001329373e-04
    asset[9]  asset[9]  7.5539853757078806e-02
    asset[9]  asset[10]  7.4778433070335048e-04
    asset[10]  asset[9]  7.4778433070335048e-04
    asset[9]  asset[11]  -1.5666909990079490e-02
    asset[11]  asset[9]  -1.5666909990079490e-02
    asset[9]  asset[12]  1.3371059560881261e-03
    asset[12]  asset[9]  1.3371059560881261e-03
    asset[9]  asset[13]  3.8926008111048356e-02
    asset[13]  asset[9]  3.8926008111048356e-02
    asset[9]  asset[14]  1.9194886161587447e-03
    asset[14]  asset[9]  1.9194886161587447e-03
    asset[9]  asset[15]  -2.5449595998970100e-02
    asset[15]  asset[9]  -2.5449595998970100e-02
    asset[9]  asset[16]  2.9786369154300656e-02
    asset[16]  asset[9]  2.9786369154300656e-02
    asset[9]  asset[17]  -3.4930489409964634e-03
    asset[17]  asset[9]  -3.4930489409964634e-03
    asset[9]  asset[18]  -3.6506371046374456e-02
    asset[18]  asset[9]  -3.6506371046374456e-02
    asset[9]  asset[19]  -3.4103020017323534e-03
    asset[19]  asset[9]  -3.4103020017323534e-03
    asset[10]  asset[10]  3.0928187294179347e-02
    asset[10]  asset[11]  -1.1288942571800725e-02
    asset[11]  asset[10]  -1.1288942571800725e-02
    asset[10]  asset[12]  -9.8862614417912949e-03
    asset[12]  asset[10]  -9.8862614417912949e-03
    asset[10]  asset[13]  1.0080429955598978e-03
    asset[13]  asset[10]  1.0080429955598978e-03
    asset[10]  asset[14]  6.6268791131319591e-03
    asset[14]  asset[10]  6.6268791131319591e-03
    asset[10]  asset[15]  -3.2885518376268878e-03
    asset[15]  asset[10]  -3.2885518376268878e-03
    asset[10]  asset[16]  1.8541775109717544e-02
    asset[16]  asset[10]  1.8541775109717544e-02
    asset[10]  asset[17]  9.2534270083719232e-04
    asset[17]  asset[10]  9.2534270083719232e-04
    asset[10]  asset[18]  2.2446458721780263e-02
    asset[18]  asset[10]  2.2446458721780263e-02
    asset[10]  asset[19]  -2.2108461935895461e-02
    asset[19]  asset[10]  -2.2108461935895461e-02
    asset[11]  asset[11]  1.3658898470697527e-02
    asset[11]  asset[12]  6.5553746645495552e-03
    asset[12]  asset[11]  6.5553746645495552e-03
    asset[11]  asset[13]  -8.6277382143174399e-03
    asset[13]  asset[11]  -8.6277382143174399e-03
    asset[11]  asset[14]  -5.0675298463670809e-03
    asset[14]  asset[11]  -5.0675298463670809e-03
    asset[11]  asset[15]  1.1757786972648818e-02
    asset[15]  asset[11]  1.1757786972648818e-02
    asset[11]  asset[16]  -1.1519258322961235e-02
    asset[16]  asset[11]  -1.1519258322961235e-02
    asset[11]  asset[17]  -8.8542706559267201e-03
    asset[17]  asset[11]  -8.8542706559267201e-03
    asset[11]  asset[18]  -8.8734901169443812e-04
    asset[18]  asset[11]  -8.8734901169443812e-04
    asset[11]  asset[19]  1.1161931270532686e-02
    asset[19]  asset[11]  1.1161931270532686e-02
    asset[12]  asset[12]  1.4500570215167850e-02
    asset[12]  asset[13]  5.4333961051779541e-03
    asset[13]  asset[12]  5.4333961051779541e-03
    asset[12]  asset[14]  -1.3953557928433927e-02
    asset[14]  asset[12]  -1.3953557928433927e-02
    asset[12]  asset[15]  7.3343132726186155e-03
    asset[15]  asset[12]  7.3343132726186155e-03
    asset[12]  asset[16]  -5.4148720514616694e-03
    asset[16]  asset[12]  -5.4148720514616694e-03
    asset[12]  asset[17]  -1.3410480607978969e-03
    asset[17]  asset[12]  -1.3410480607978969e-03
    asset[12]  asset[18]  -9.0653354339955364e-03
    asset[18]  asset[12]  -9.0653354339955364e-03
    asset[12]  asset[19]  9.9319526907560053e-03
    asset[19]  asset[12]  9.9319526907560053e-03
    asset[13]  asset[13]  4.6705061931943861e-02
    asset[13]  asset[14]  -2.3864473989600274e-02
    asset[14]  asset[13]  -2.3864473989600274e-02
    asset[13]  asset[15]  -1.0082084585003731e-02
    asset[15]  asset[13]  -1.0082084585003731e-02
    asset[13]  asset[16]  -3.0097348946092218e-03
    asset[16]  asset[13]  -3.0097348946092218e-03
    asset[13]  asset[17]  1.6829749870198363e-02
    asset[17]  asset[13]  1.6829749870198363e-02
    asset[13]  asset[18]  -1.8590578975966970e-02
    asset[18]  asset[13]  -1.8590578975966970e-02
    asset[13]  asset[19]  -1.5169812442770931e-02
    asset[19]  asset[13]  -1.5169812442770931e-02
    asset[14]  asset[14]  3.8998673040930236e-02
    asset[14]  asset[15]  -7.2993198911247602e-03
    asset[15]  asset[14]  -7.2993198911247602e-03
    asset[14]  asset[16]  1.8565469850968568e-02
    asset[16]  asset[14]  1.8565469850968568e-02
    asset[14]  asset[17]  -1.1861519733100817e-02
    asset[17]  asset[14]  -1.1861519733100817e-02
    asset[14]  asset[18]  6.0074174144637950e-03
    asset[18]  asset[14]  6.0074174144637950e-03
    asset[14]  asset[19]  9.2489902028627009e-03
    asset[19]  asset[14]  9.2489902028627009e-03
    asset[15]  asset[15]  2.7931051248342491e-02
    asset[15]  asset[16]  -1.2499380138007837e-02
    asset[16]  asset[15]  -1.2499380138007837e-02
    asset[15]  asset[17]  -1.2291500439092738e-02
    asset[17]  asset[15]  -1.2291500439092738e-02
    asset[15]  asset[18]  9.5956526266833264e-03
    asset[18]  asset[15]  9.5956526266833264e-03
    asset[15]  asset[19]  8.4223000079042005e-03
    asset[19]  asset[15]  8.4223000079042005e-03
    asset[16]  asset[16]  3.7976214009654001e-02
    asset[16]  asset[17]  -1.7668961064935769e-02
    asset[17]  asset[16]  -1.7668961064935769e-02
    asset[16]  asset[18]  -8.5280458572409277e-05
    asset[18]  asset[16]  -8.5280458572409277e-05
    asset[16]  asset[19]  -4.3620748893988762e-03
    asset[19]  asset[16]  -4.3620748893988762e-03
    asset[17]  asset[17]  3.7302104396701521e-02
    asset[17]  asset[18]  2.8527144269470275e-05
    asset[18]  asset[17]  2.8527144269470275e-05
    asset[17]  asset[19]  -1.2999311308120532e-02
    asset[19]  asset[17]  -1.2999311308120532e-02
    asset[18]  asset[18]  3.6130020891208252e-02
    asset[18]  asset[19]  -1.4342354640234527e-02
    asset[19]  asset[18]  -1.4342354640234527e-02
    asset[19]  asset[19]  2.8906255762794500e-02
QCMATRIX   fixed_risk
    asset[0]  asset[0]  2.0854048564792047e-03
    asset[1]  asset[1]  1.7440607452767155e-03
    asset[2]  asset[2]  2.0041580697767025e-03
    asset[3]  asset[3]  1.8657536246126307e-03
    asset[4]  asset[4]  3.0665936246131679e-03
    asset[5]  asset[5]  2.0601433945445988e-03
    asset[6]  asset[6]  3.1290657211158267e-03
    asset[7]  asset[7]  1.3866389586197443e-03
    asset[8]  asset[8]  5.6027627986867908e-04
    asset[9]  asset[9]  7.8014414426672354e-03
    asset[10]  asset[10]  3.3662051670618159e-03
    asset[11]  asset[11]  1.5183078772833124e-03
    asset[12]  asset[12]  1.3674584199347920e-03
    asset[13]  asset[13]  4.9577848166763279e-03
    asset[14]  asset[14]  3.6141289585101149e-03
    asset[15]  asset[15]  2.9623032813769039e-03
    asset[16]  asset[16]  3.6138855663583706e-03
    asset[17]  asset[17]  3.9193913226692962e-03
    asset[18]  asset[18]  3.7475569337861170e-03
    asset[19]  asset[19]  3.1266974682395221e-03
ENDATA
